Cs1 Pb1 Br3
1.0
        6.0173339844         0.0000000000         0.0000000000
        0.0000000000         6.0173339844         0.0000000000
        0.0000000000         0.0000000000         6.0173339844
   Cs   Pb   Br
    1    1    3
Direct
     0.500000000         0.500000000         0.500000000
     0.000000000         0.000000000         0.000000000
     0.000000000         0.000000000         0.500000000
     0.000000000         0.500000000         0.000000000
     0.500000000         0.000000000         0.000000000
